NAME : tsp40_4.205.tour
COMMENT : Length = 205
COMMENT : Found by LKH [Keld Helsgaun]
TYPE : TOUR
DIMENSION : 40
TOUR_SECTION
1
12
23
36
10
38
18
3
5
25
6
29
14
33
21
27
17
35
7
13
9
8
16
28
40
37
11
15
32
24
4
20
22
31
2
19
39
30
34
26
-1
EOF
